c File: flat175_3_0.col
c
c SOURCE: Joseph Culberson (joe@cs.ualberta.ca)
c DESCRIPTION: Quasi-random coloring problem
c              generated with flatness = 0
c                             probability = 0.041
c                             known coloring = 3
c                             random seed = 1044
c              Creation Date:  Wed Feb 24 10:55:10 1999
c Maximum degree = 8 Minimum degree = 1
c COLOR VERIFICATION: Using the permuted order
c under simple greedy yields the specified
c coloring number
c Color = 3 specified partitions = 3
c p edge 175 417
c cnf created by edge2cnf
p cnf 525 1951
-1 -2 0
-1 -3 0
-2 -3 0
1 2 3 0
-4 -5 0
-4 -6 0
-5 -6 0
4 5 6 0
-7 -8 0
-7 -9 0
-8 -9 0
7 8 9 0
-10 -11 0
-10 -12 0
-11 -12 0
10 11 12 0
-13 -14 0
-13 -15 0
-14 -15 0
13 14 15 0
-16 -17 0
-16 -18 0
-17 -18 0
16 17 18 0
-19 -20 0
-19 -21 0
-20 -21 0
19 20 21 0
-22 -23 0
-22 -24 0
-23 -24 0
22 23 24 0
-25 -26 0
-25 -27 0
-26 -27 0
25 26 27 0
-28 -29 0
-28 -30 0
-29 -30 0
28 29 30 0
-31 -32 0
-31 -33 0
-32 -33 0
31 32 33 0
-34 -35 0
-34 -36 0
-35 -36 0
34 35 36 0
-37 -38 0
-37 -39 0
-38 -39 0
37 38 39 0
-40 -41 0
-40 -42 0
-41 -42 0
40 41 42 0
-43 -44 0
-43 -45 0
-44 -45 0
43 44 45 0
-46 -47 0
-46 -48 0
-47 -48 0
46 47 48 0
-49 -50 0
-49 -51 0
-50 -51 0
49 50 51 0
-52 -53 0
-52 -54 0
-53 -54 0
52 53 54 0
-55 -56 0
-55 -57 0
-56 -57 0
55 56 57 0
-58 -59 0
-58 -60 0
-59 -60 0
58 59 60 0
-61 -62 0
-61 -63 0
-62 -63 0
61 62 63 0
-64 -65 0
-64 -66 0
-65 -66 0
64 65 66 0
-67 -68 0
-67 -69 0
-68 -69 0
67 68 69 0
-70 -71 0
-70 -72 0
-71 -72 0
70 71 72 0
-73 -74 0
-73 -75 0
-74 -75 0
73 74 75 0
-76 -77 0
-76 -78 0
-77 -78 0
76 77 78 0
-79 -80 0
-79 -81 0
-80 -81 0
79 80 81 0
-82 -83 0
-82 -84 0
-83 -84 0
82 83 84 0
-85 -86 0
-85 -87 0
-86 -87 0
85 86 87 0
-88 -89 0
-88 -90 0
-89 -90 0
88 89 90 0
-91 -92 0
-91 -93 0
-92 -93 0
91 92 93 0
-94 -95 0
-94 -96 0
-95 -96 0
94 95 96 0
-97 -98 0
-97 -99 0
-98 -99 0
97 98 99 0
-100 -101 0
-100 -102 0
-101 -102 0
100 101 102 0
-103 -104 0
-103 -105 0
-104 -105 0
103 104 105 0
-106 -107 0
-106 -108 0
-107 -108 0
106 107 108 0
-109 -110 0
-109 -111 0
-110 -111 0
109 110 111 0
-112 -113 0
-112 -114 0
-113 -114 0
112 113 114 0
-115 -116 0
-115 -117 0
-116 -117 0
115 116 117 0
-118 -119 0
-118 -120 0
-119 -120 0
118 119 120 0
-121 -122 0
-121 -123 0
-122 -123 0
121 122 123 0
-124 -125 0
-124 -126 0
-125 -126 0
124 125 126 0
-127 -128 0
-127 -129 0
-128 -129 0
127 128 129 0
-130 -131 0
-130 -132 0
-131 -132 0
130 131 132 0
-133 -134 0
-133 -135 0
-134 -135 0
133 134 135 0
-136 -137 0
-136 -138 0
-137 -138 0
136 137 138 0
-139 -140 0
-139 -141 0
-140 -141 0
139 140 141 0
-142 -143 0
-142 -144 0
-143 -144 0
142 143 144 0
-145 -146 0
-145 -147 0
-146 -147 0
145 146 147 0
-148 -149 0
-148 -150 0
-149 -150 0
148 149 150 0
-151 -152 0
-151 -153 0
-152 -153 0
151 152 153 0
-154 -155 0
-154 -156 0
-155 -156 0
154 155 156 0
-157 -158 0
-157 -159 0
-158 -159 0
157 158 159 0
-160 -161 0
-160 -162 0
-161 -162 0
160 161 162 0
-163 -164 0
-163 -165 0
-164 -165 0
163 164 165 0
-166 -167 0
-166 -168 0
-167 -168 0
166 167 168 0
-169 -170 0
-169 -171 0
-170 -171 0
169 170 171 0
-172 -173 0
-172 -174 0
-173 -174 0
172 173 174 0
-175 -176 0
-175 -177 0
-176 -177 0
175 176 177 0
-178 -179 0
-178 -180 0
-179 -180 0
178 179 180 0
-181 -182 0
-181 -183 0
-182 -183 0
181 182 183 0
-184 -185 0
-184 -186 0
-185 -186 0
184 185 186 0
-187 -188 0
-187 -189 0
-188 -189 0
187 188 189 0
-190 -191 0
-190 -192 0
-191 -192 0
190 191 192 0
-193 -194 0
-193 -195 0
-194 -195 0
193 194 195 0
-196 -197 0
-196 -198 0
-197 -198 0
196 197 198 0
-199 -200 0
-199 -201 0
-200 -201 0
199 200 201 0
-202 -203 0
-202 -204 0
-203 -204 0
202 203 204 0
-205 -206 0
-205 -207 0
-206 -207 0
205 206 207 0
-208 -209 0
-208 -210 0
-209 -210 0
208 209 210 0
-211 -212 0
-211 -213 0
-212 -213 0
211 212 213 0
-214 -215 0
-214 -216 0
-215 -216 0
214 215 216 0
-217 -218 0
-217 -219 0
-218 -219 0
217 218 219 0
-220 -221 0
-220 -222 0
-221 -222 0
220 221 222 0
-223 -224 0
-223 -225 0
-224 -225 0
223 224 225 0
-226 -227 0
-226 -228 0
-227 -228 0
226 227 228 0
-229 -230 0
-229 -231 0
-230 -231 0
229 230 231 0
-232 -233 0
-232 -234 0
-233 -234 0
232 233 234 0
-235 -236 0
-235 -237 0
-236 -237 0
235 236 237 0
-238 -239 0
-238 -240 0
-239 -240 0
238 239 240 0
-241 -242 0
-241 -243 0
-242 -243 0
241 242 243 0
-244 -245 0
-244 -246 0
-245 -246 0
244 245 246 0
-247 -248 0
-247 -249 0
-248 -249 0
247 248 249 0
-250 -251 0
-250 -252 0
-251 -252 0
250 251 252 0
-253 -254 0
-253 -255 0
-254 -255 0
253 254 255 0
-256 -257 0
-256 -258 0
-257 -258 0
256 257 258 0
-259 -260 0
-259 -261 0
-260 -261 0
259 260 261 0
-262 -263 0
-262 -264 0
-263 -264 0
262 263 264 0
-265 -266 0
-265 -267 0
-266 -267 0
265 266 267 0
-268 -269 0
-268 -270 0
-269 -270 0
268 269 270 0
-271 -272 0
-271 -273 0
-272 -273 0
271 272 273 0
-274 -275 0
-274 -276 0
-275 -276 0
274 275 276 0
-277 -278 0
-277 -279 0
-278 -279 0
277 278 279 0
-280 -281 0
-280 -282 0
-281 -282 0
280 281 282 0
-283 -284 0
-283 -285 0
-284 -285 0
283 284 285 0
-286 -287 0
-286 -288 0
-287 -288 0
286 287 288 0
-289 -290 0
-289 -291 0
-290 -291 0
289 290 291 0
-292 -293 0
-292 -294 0
-293 -294 0
292 293 294 0
-295 -296 0
-295 -297 0
-296 -297 0
295 296 297 0
-298 -299 0
-298 -300 0
-299 -300 0
298 299 300 0
-301 -302 0
-301 -303 0
-302 -303 0
301 302 303 0
-304 -305 0
-304 -306 0
-305 -306 0
304 305 306 0
-307 -308 0
-307 -309 0
-308 -309 0
307 308 309 0
-310 -311 0
-310 -312 0
-311 -312 0
310 311 312 0
-313 -314 0
-313 -315 0
-314 -315 0
313 314 315 0
-316 -317 0
-316 -318 0
-317 -318 0
316 317 318 0
-319 -320 0
-319 -321 0
-320 -321 0
319 320 321 0
-322 -323 0
-322 -324 0
-323 -324 0
322 323 324 0
-325 -326 0
-325 -327 0
-326 -327 0
325 326 327 0
-328 -329 0
-328 -330 0
-329 -330 0
328 329 330 0
-331 -332 0
-331 -333 0
-332 -333 0
331 332 333 0
-334 -335 0
-334 -336 0
-335 -336 0
334 335 336 0
-337 -338 0
-337 -339 0
-338 -339 0
337 338 339 0
-340 -341 0
-340 -342 0
-341 -342 0
340 341 342 0
-343 -344 0
-343 -345 0
-344 -345 0
343 344 345 0
-346 -347 0
-346 -348 0
-347 -348 0
346 347 348 0
-349 -350 0
-349 -351 0
-350 -351 0
349 350 351 0
-352 -353 0
-352 -354 0
-353 -354 0
352 353 354 0
-355 -356 0
-355 -357 0
-356 -357 0
355 356 357 0
-358 -359 0
-358 -360 0
-359 -360 0
358 359 360 0
-361 -362 0
-361 -363 0
-362 -363 0
361 362 363 0
-364 -365 0
-364 -366 0
-365 -366 0
364 365 366 0
-367 -368 0
-367 -369 0
-368 -369 0
367 368 369 0
-370 -371 0
-370 -372 0
-371 -372 0
370 371 372 0
-373 -374 0
-373 -375 0
-374 -375 0
373 374 375 0
-376 -377 0
-376 -378 0
-377 -378 0
376 377 378 0
-379 -380 0
-379 -381 0
-380 -381 0
379 380 381 0
-382 -383 0
-382 -384 0
-383 -384 0
382 383 384 0
-385 -386 0
-385 -387 0
-386 -387 0
385 386 387 0
-388 -389 0
-388 -390 0
-389 -390 0
388 389 390 0
-391 -392 0
-391 -393 0
-392 -393 0
391 392 393 0
-394 -395 0
-394 -396 0
-395 -396 0
394 395 396 0
-397 -398 0
-397 -399 0
-398 -399 0
397 398 399 0
-400 -401 0
-400 -402 0
-401 -402 0
400 401 402 0
-403 -404 0
-403 -405 0
-404 -405 0
403 404 405 0
-406 -407 0
-406 -408 0
-407 -408 0
406 407 408 0
-409 -410 0
-409 -411 0
-410 -411 0
409 410 411 0
-412 -413 0
-412 -414 0
-413 -414 0
412 413 414 0
-415 -416 0
-415 -417 0
-416 -417 0
415 416 417 0
-418 -419 0
-418 -420 0
-419 -420 0
418 419 420 0
-421 -422 0
-421 -423 0
-422 -423 0
421 422 423 0
-424 -425 0
-424 -426 0
-425 -426 0
424 425 426 0
-427 -428 0
-427 -429 0
-428 -429 0
427 428 429 0
-430 -431 0
-430 -432 0
-431 -432 0
430 431 432 0
-433 -434 0
-433 -435 0
-434 -435 0
433 434 435 0
-436 -437 0
-436 -438 0
-437 -438 0
436 437 438 0
-439 -440 0
-439 -441 0
-440 -441 0
439 440 441 0
-442 -443 0
-442 -444 0
-443 -444 0
442 443 444 0
-445 -446 0
-445 -447 0
-446 -447 0
445 446 447 0
-448 -449 0
-448 -450 0
-449 -450 0
448 449 450 0
-451 -452 0
-451 -453 0
-452 -453 0
451 452 453 0
-454 -455 0
-454 -456 0
-455 -456 0
454 455 456 0
-457 -458 0
-457 -459 0
-458 -459 0
457 458 459 0
-460 -461 0
-460 -462 0
-461 -462 0
460 461 462 0
-463 -464 0
-463 -465 0
-464 -465 0
463 464 465 0
-466 -467 0
-466 -468 0
-467 -468 0
466 467 468 0
-469 -470 0
-469 -471 0
-470 -471 0
469 470 471 0
-472 -473 0
-472 -474 0
-473 -474 0
472 473 474 0
-475 -476 0
-475 -477 0
-476 -477 0
475 476 477 0
-478 -479 0
-478 -480 0
-479 -480 0
478 479 480 0
-481 -482 0
-481 -483 0
-482 -483 0
481 482 483 0
-484 -485 0
-484 -486 0
-485 -486 0
484 485 486 0
-487 -488 0
-487 -489 0
-488 -489 0
487 488 489 0
-490 -491 0
-490 -492 0
-491 -492 0
490 491 492 0
-493 -494 0
-493 -495 0
-494 -495 0
493 494 495 0
-496 -497 0
-496 -498 0
-497 -498 0
496 497 498 0
-499 -500 0
-499 -501 0
-500 -501 0
499 500 501 0
-502 -503 0
-502 -504 0
-503 -504 0
502 503 504 0
-505 -506 0
-505 -507 0
-506 -507 0
505 506 507 0
-508 -509 0
-508 -510 0
-509 -510 0
508 509 510 0
-511 -512 0
-511 -513 0
-512 -513 0
511 512 513 0
-514 -515 0
-514 -516 0
-515 -516 0
514 515 516 0
-517 -518 0
-517 -519 0
-518 -519 0
517 518 519 0
-520 -521 0
-520 -522 0
-521 -522 0
520 521 522 0
-523 -524 0
-523 -525 0
-524 -525 0
523 524 525 0
-109 -1 0
-110 -2 0
-111 -3 0
-319 -1 0
-320 -2 0
-321 -3 0
-16 -4 0
-17 -5 0
-18 -6 0
-172 -4 0
-173 -5 0
-174 -6 0
-226 -4 0
-227 -5 0
-228 -6 0
-379 -4 0
-380 -5 0
-381 -6 0
-445 -4 0
-446 -5 0
-447 -6 0
-463 -4 0
-464 -5 0
-465 -6 0
-13 -7 0
-14 -8 0
-15 -9 0
-43 -7 0
-44 -8 0
-45 -9 0
-76 -7 0
-77 -8 0
-78 -9 0
-139 -7 0
-140 -8 0
-141 -9 0
-217 -7 0
-218 -8 0
-219 -9 0
-301 -7 0
-302 -8 0
-303 -9 0
-304 -7 0
-305 -8 0
-306 -9 0
-373 -7 0
-374 -8 0
-375 -9 0
-31 -10 0
-32 -11 0
-33 -12 0
-277 -10 0
-278 -11 0
-279 -12 0
-298 -10 0
-299 -11 0
-300 -12 0
-388 -10 0
-389 -11 0
-390 -12 0
-310 -13 0
-311 -14 0
-312 -15 0
-439 -13 0
-440 -14 0
-441 -15 0
-448 -13 0
-449 -14 0
-450 -15 0
-499 -13 0
-500 -14 0
-501 -15 0
-37 -16 0
-38 -17 0
-39 -18 0
-82 -16 0
-83 -17 0
-84 -18 0
-274 -16 0
-275 -17 0
-276 -18 0
-349 -16 0
-350 -17 0
-351 -18 0
-40 -19 0
-41 -20 0
-42 -21 0
-49 -19 0
-50 -20 0
-51 -21 0
-52 -19 0
-53 -20 0
-54 -21 0
-226 -19 0
-227 -20 0
-228 -21 0
-334 -19 0
-335 -20 0
-336 -21 0
-151 -22 0
-152 -23 0
-153 -24 0
-199 -22 0
-200 -23 0
-201 -24 0
-223 -22 0
-224 -23 0
-225 -24 0
-37 -25 0
-38 -26 0
-39 -27 0
-178 -25 0
-179 -26 0
-180 -27 0
-121 -28 0
-122 -29 0
-123 -30 0
-202 -28 0
-203 -29 0
-204 -30 0
-292 -28 0
-293 -29 0
-294 -30 0
-451 -28 0
-452 -29 0
-453 -30 0
-457 -28 0
-458 -29 0
-459 -30 0
-523 -28 0
-524 -29 0
-525 -30 0
-64 -31 0
-65 -32 0
-66 -33 0
-241 -31 0
-242 -32 0
-243 -33 0
-259 -31 0
-260 -32 0
-261 -33 0
-337 -31 0
-338 -32 0
-339 -33 0
-394 -31 0
-395 -32 0
-396 -33 0
-484 -31 0
-485 -32 0
-486 -33 0
-109 -34 0
-110 -35 0
-111 -36 0
-175 -34 0
-176 -35 0
-177 -36 0
-211 -34 0
-212 -35 0
-213 -36 0
-334 -34 0
-335 -35 0
-336 -36 0
-346 -34 0
-347 -35 0
-348 -36 0
-64 -37 0
-65 -38 0
-66 -39 0
-100 -37 0
-101 -38 0
-102 -39 0
-178 -37 0
-179 -38 0
-180 -39 0
-409 -37 0
-410 -38 0
-411 -39 0
-127 -40 0
-128 -41 0
-129 -42 0
-157 -40 0
-158 -41 0
-159 -42 0
-175 -40 0
-176 -41 0
-177 -42 0
-199 -40 0
-200 -41 0
-201 -42 0
-322 -40 0
-323 -41 0
-324 -42 0
-487 -40 0
-488 -41 0
-489 -42 0
-199 -43 0
-200 -44 0
-201 -45 0
-436 -43 0
-437 -44 0
-438 -45 0
-466 -43 0
-467 -44 0
-468 -45 0
-481 -43 0
-482 -44 0
-483 -45 0
-520 -43 0
-521 -44 0
-522 -45 0
-157 -46 0
-158 -47 0
-159 -48 0
-163 -46 0
-164 -47 0
-165 -48 0
-199 -46 0
-200 -47 0
-201 -48 0
-277 -46 0
-278 -47 0
-279 -48 0
-385 -46 0
-386 -47 0
-387 -48 0
-406 -46 0
-407 -47 0
-408 -48 0
-439 -49 0
-440 -50 0
-441 -51 0
-85 -52 0
-86 -53 0
-87 -54 0
-112 -52 0
-113 -53 0
-114 -54 0
-379 -52 0
-380 -53 0
-381 -54 0
-403 -52 0
-404 -53 0
-405 -54 0
-88 -55 0
-89 -56 0
-90 -57 0
-136 -55 0
-137 -56 0
-138 -57 0
-274 -55 0
-275 -56 0
-276 -57 0
-403 -55 0
-404 -56 0
-405 -57 0
-166 -58 0
-167 -59 0
-168 -60 0
-208 -58 0
-209 -59 0
-210 -60 0
-397 -58 0
-398 -59 0
-399 -60 0
-358 -61 0
-359 -62 0
-360 -63 0
-490 -61 0
-491 -62 0
-492 -63 0
-520 -61 0
-521 -62 0
-522 -63 0
-385 -64 0
-386 -65 0
-387 -66 0
-145 -67 0
-146 -68 0
-147 -69 0
-235 -67 0
-236 -68 0
-237 -69 0
-370 -67 0
-371 -68 0
-372 -69 0
-475 -67 0
-476 -68 0
-477 -69 0
-385 -70 0
-386 -71 0
-387 -72 0
-412 -70 0
-413 -71 0
-414 -72 0
-97 -73 0
-98 -74 0
-99 -75 0
-109 -73 0
-110 -74 0
-111 -75 0
-205 -73 0
-206 -74 0
-207 -75 0
-232 -73 0
-233 -74 0
-234 -75 0
-337 -73 0
-338 -74 0
-339 -75 0
-460 -73 0
-461 -74 0
-462 -75 0
-145 -76 0
-146 -77 0
-147 -78 0
-286 -76 0
-287 -77 0
-288 -78 0
-418 -76 0
-419 -77 0
-420 -78 0
-475 -76 0
-476 -77 0
-477 -78 0
-121 -79 0
-122 -80 0
-123 -81 0
-166 -79 0
-167 -80 0
-168 -81 0
-193 -79 0
-194 -80 0
-195 -81 0
-253 -79 0
-254 -80 0
-255 -81 0
-271 -79 0
-272 -80 0
-273 -81 0
-295 -79 0
-296 -80 0
-297 -81 0
-508 -79 0
-509 -80 0
-510 -81 0
-85 -82 0
-86 -83 0
-87 -84 0
-160 -82 0
-161 -83 0
-162 -84 0
-253 -82 0
-254 -83 0
-255 -84 0
-319 -82 0
-320 -83 0
-321 -84 0
-382 -82 0
-383 -83 0
-384 -84 0
-502 -82 0
-503 -83 0
-504 -84 0
-508 -82 0
-509 -83 0
-510 -84 0
-238 -85 0
-239 -86 0
-240 -87 0
-361 -85 0
-362 -86 0
-363 -87 0
-418 -85 0
-419 -86 0
-420 -87 0
-112 -88 0
-113 -89 0
-114 -90 0
-127 -88 0
-128 -89 0
-129 -90 0
-154 -88 0
-155 -89 0
-156 -90 0
-220 -88 0
-221 -89 0
-222 -90 0
-346 -88 0
-347 -89 0
-348 -90 0
-412 -88 0
-413 -89 0
-414 -90 0
-148 -91 0
-149 -92 0
-150 -93 0
-385 -91 0
-386 -92 0
-387 -93 0
-424 -91 0
-425 -92 0
-426 -93 0
-427 -91 0
-428 -92 0
-429 -93 0
-460 -91 0
-461 -92 0
-462 -93 0
-208 -94 0
-209 -95 0
-210 -96 0
-280 -94 0
-281 -95 0
-282 -96 0
-373 -94 0
-374 -95 0
-375 -96 0
-451 -94 0
-452 -95 0
-453 -96 0
-511 -94 0
-512 -95 0
-513 -96 0
-316 -97 0
-317 -98 0
-318 -99 0
-355 -97 0
-356 -98 0
-357 -99 0
-361 -100 0
-362 -101 0
-363 -102 0
-400 -100 0
-401 -101 0
-402 -102 0
-190 -103 0
-191 -104 0
-192 -105 0
-217 -103 0
-218 -104 0
-219 -105 0
-409 -103 0
-410 -104 0
-411 -105 0
-421 -103 0
-422 -104 0
-423 -105 0
-472 -103 0
-473 -104 0
-474 -105 0
-169 -106 0
-170 -107 0
-171 -108 0
-172 -106 0
-173 -107 0
-174 -108 0
-316 -106 0
-317 -107 0
-318 -108 0
-337 -106 0
-338 -107 0
-339 -108 0
-358 -106 0
-359 -107 0
-360 -108 0
-385 -106 0
-386 -107 0
-387 -108 0
-484 -106 0
-485 -107 0
-486 -108 0
-136 -109 0
-137 -110 0
-138 -111 0
-382 -109 0
-383 -110 0
-384 -111 0
-124 -112 0
-125 -113 0
-126 -114 0
-226 -112 0
-227 -113 0
-228 -114 0
-259 -112 0
-260 -113 0
-261 -114 0
-358 -112 0
-359 -113 0
-360 -114 0
-517 -112 0
-518 -113 0
-519 -114 0
-148 -115 0
-149 -116 0
-150 -117 0
-250 -115 0
-251 -116 0
-252 -117 0
-370 -115 0
-371 -116 0
-372 -117 0
-478 -115 0
-479 -116 0
-480 -117 0
-349 -118 0
-350 -119 0
-351 -120 0
-475 -118 0
-476 -119 0
-477 -120 0
-487 -118 0
-488 -119 0
-489 -120 0
-514 -118 0
-515 -119 0
-516 -120 0
-145 -121 0
-146 -122 0
-147 -123 0
-169 -121 0
-170 -122 0
-171 -123 0
-334 -121 0
-335 -122 0
-336 -123 0
-391 -121 0
-392 -122 0
-393 -123 0
-442 -121 0
-443 -122 0
-444 -123 0
-310 -124 0
-311 -125 0
-312 -126 0
-334 -124 0
-335 -125 0
-336 -126 0
-403 -124 0
-404 -125 0
-405 -126 0
-166 -127 0
-167 -128 0
-168 -129 0
-229 -127 0
-230 -128 0
-231 -129 0
-316 -127 0
-317 -128 0
-318 -129 0
-445 -127 0
-446 -128 0
-447 -129 0
-457 -127 0
-458 -128 0
-459 -129 0
-298 -130 0
-299 -131 0
-300 -132 0
-376 -130 0
-377 -131 0
-378 -132 0
-196 -133 0
-197 -134 0
-198 -135 0
-244 -136 0
-245 -137 0
-246 -138 0
-304 -136 0
-305 -137 0
-306 -138 0
-340 -136 0
-341 -137 0
-342 -138 0
-445 -139 0
-446 -140 0
-447 -141 0
-457 -139 0
-458 -140 0
-459 -141 0
-463 -139 0
-464 -140 0
-465 -141 0
-520 -139 0
-521 -140 0
-522 -141 0
-223 -142 0
-224 -143 0
-225 -144 0
-292 -142 0
-293 -143 0
-294 -144 0
-409 -142 0
-410 -143 0
-411 -144 0
-424 -142 0
-425 -143 0
-426 -144 0
-502 -142 0
-503 -143 0
-504 -144 0
-220 -145 0
-221 -146 0
-222 -147 0
-169 -148 0
-170 -149 0
-171 -150 0
-316 -151 0
-317 -152 0
-318 -153 0
-340 -151 0
-341 -152 0
-342 -153 0
-385 -151 0
-386 -152 0
-387 -153 0
-454 -151 0
-455 -152 0
-456 -153 0
-469 -151 0
-470 -152 0
-471 -153 0
-196 -154 0
-197 -155 0
-198 -156 0
-361 -154 0
-362 -155 0
-363 -156 0
-184 -157 0
-185 -158 0
-186 -159 0
-259 -157 0
-260 -158 0
-261 -159 0
-322 -157 0
-323 -158 0
-324 -159 0
-334 -157 0
-335 -158 0
-336 -159 0
-403 -157 0
-404 -158 0
-405 -159 0
-439 -157 0
-440 -158 0
-441 -159 0
-163 -160 0
-164 -161 0
-165 -162 0
-217 -160 0
-218 -161 0
-219 -162 0
-295 -160 0
-296 -161 0
-297 -162 0
-346 -160 0
-347 -161 0
-348 -162 0
-364 -160 0
-365 -161 0
-366 -162 0
-379 -160 0
-380 -161 0
-381 -162 0
-247 -163 0
-248 -164 0
-249 -165 0
-187 -166 0
-188 -167 0
-189 -168 0
-307 -166 0
-308 -167 0
-309 -168 0
-211 -169 0
-212 -170 0
-213 -171 0
-238 -169 0
-239 -170 0
-240 -171 0
-394 -169 0
-395 -170 0
-396 -171 0
-433 -169 0
-434 -170 0
-435 -171 0
-445 -169 0
-446 -170 0
-447 -171 0
-274 -172 0
-275 -173 0
-276 -174 0
-310 -172 0
-311 -173 0
-312 -174 0
-337 -172 0
-338 -173 0
-339 -174 0
-373 -172 0
-374 -173 0
-375 -174 0
-451 -172 0
-452 -173 0
-453 -174 0
-280 -175 0
-281 -176 0
-282 -177 0
-298 -175 0
-299 -176 0
-300 -177 0
-352 -175 0
-353 -176 0
-354 -177 0
-361 -178 0
-362 -179 0
-363 -180 0
-406 -178 0
-407 -179 0
-408 -180 0
-472 -178 0
-473 -179 0
-474 -180 0
-508 -178 0
-509 -179 0
-510 -180 0
-388 -181 0
-389 -182 0
-390 -183 0
-289 -184 0
-290 -185 0
-291 -186 0
-298 -184 0
-299 -185 0
-300 -186 0
-337 -184 0
-338 -185 0
-339 -186 0
-367 -184 0
-368 -185 0
-369 -186 0
-391 -184 0
-392 -185 0
-393 -186 0
-199 -187 0
-200 -188 0
-201 -189 0
-238 -187 0
-239 -188 0
-240 -189 0
-349 -187 0
-350 -188 0
-351 -189 0
-517 -187 0
-518 -188 0
-519 -189 0
-202 -190 0
-203 -191 0
-204 -192 0
-289 -190 0
-290 -191 0
-291 -192 0
-454 -190 0
-455 -191 0
-456 -192 0
-523 -190 0
-524 -191 0
-525 -192 0
-292 -193 0
-293 -194 0
-294 -195 0
-205 -196 0
-206 -197 0
-207 -198 0
-466 -196 0
-467 -197 0
-468 -198 0
-484 -196 0
-485 -197 0
-486 -198 0
-220 -199 0
-221 -200 0
-222 -201 0
-250 -202 0
-251 -203 0
-252 -204 0
-331 -202 0
-332 -203 0
-333 -204 0
-256 -205 0
-257 -206 0
-258 -207 0
-277 -205 0
-278 -206 0
-279 -207 0
-331 -205 0
-332 -206 0
-333 -207 0
-229 -208 0
-230 -209 0
-231 -210 0
-301 -214 0
-302 -215 0
-303 -216 0
-412 -214 0
-413 -215 0
-414 -216 0
-310 -217 0
-311 -218 0
-312 -219 0
-436 -217 0
-437 -218 0
-438 -219 0
-472 -217 0
-473 -218 0
-474 -219 0
-487 -217 0
-488 -218 0
-489 -219 0
-430 -220 0
-431 -221 0
-432 -222 0
-523 -220 0
-524 -221 0
-525 -222 0
-253 -223 0
-254 -224 0
-255 -225 0
-379 -223 0
-380 -224 0
-381 -225 0
-355 -226 0
-356 -227 0
-357 -228 0
-403 -229 0
-404 -230 0
-405 -231 0
-436 -229 0
-437 -230 0
-438 -231 0
-457 -229 0
-458 -230 0
-459 -231 0
-499 -229 0
-500 -230 0
-501 -231 0
-238 -232 0
-239 -233 0
-240 -234 0
-250 -232 0
-251 -233 0
-252 -234 0
-421 -232 0
-422 -233 0
-423 -234 0
-448 -232 0
-449 -233 0
-450 -234 0
-301 -235 0
-302 -236 0
-303 -237 0
-358 -235 0
-359 -236 0
-360 -237 0
-388 -235 0
-389 -236 0
-390 -237 0
-241 -238 0
-242 -239 0
-243 -240 0
-454 -238 0
-455 -239 0
-456 -240 0
-493 -238 0
-494 -239 0
-495 -240 0
-505 -238 0
-506 -239 0
-507 -240 0
-328 -241 0
-329 -242 0
-330 -243 0
-436 -241 0
-437 -242 0
-438 -243 0
-508 -241 0
-509 -242 0
-510 -243 0
-514 -241 0
-515 -242 0
-516 -243 0
-310 -244 0
-311 -245 0
-312 -246 0
-328 -244 0
-329 -245 0
-330 -246 0
-346 -244 0
-347 -245 0
-348 -246 0
-496 -244 0
-497 -245 0
-498 -246 0
-352 -247 0
-353 -248 0
-354 -249 0
-484 -247 0
-485 -248 0
-486 -249 0
-523 -247 0
-524 -248 0
-525 -249 0
-268 -250 0
-269 -251 0
-270 -252 0
-400 -250 0
-401 -251 0
-402 -252 0
-439 -250 0
-440 -251 0
-441 -252 0
-466 -250 0
-467 -251 0
-468 -252 0
-274 -253 0
-275 -254 0
-276 -255 0
-403 -253 0
-404 -254 0
-405 -255 0
-313 -256 0
-314 -257 0
-315 -258 0
-451 -256 0
-452 -257 0
-453 -258 0
-514 -256 0
-515 -257 0
-516 -258 0
-268 -259 0
-269 -260 0
-270 -261 0
-484 -259 0
-485 -260 0
-486 -261 0
-496 -259 0
-497 -260 0
-498 -261 0
-313 -262 0
-314 -263 0
-315 -264 0
-439 -262 0
-440 -263 0
-441 -264 0
-319 -265 0
-320 -266 0
-321 -267 0
-307 -268 0
-308 -269 0
-309 -270 0
-409 -268 0
-410 -269 0
-411 -270 0
-298 -271 0
-299 -272 0
-300 -273 0
-406 -271 0
-407 -272 0
-408 -273 0
-430 -271 0
-431 -272 0
-432 -273 0
-448 -271 0
-449 -272 0
-450 -273 0
-466 -271 0
-467 -272 0
-468 -273 0
-502 -271 0
-503 -272 0
-504 -273 0
-367 -274 0
-368 -275 0
-369 -276 0
-451 -274 0
-452 -275 0
-453 -276 0
-469 -274 0
-470 -275 0
-471 -276 0
-523 -277 0
-524 -278 0
-525 -279 0
-430 -280 0
-431 -281 0
-432 -282 0
-349 -283 0
-350 -284 0
-351 -285 0
-373 -283 0
-374 -284 0
-375 -285 0
-394 -283 0
-395 -284 0
-396 -285 0
-490 -283 0
-491 -284 0
-492 -285 0
-502 -283 0
-503 -284 0
-504 -285 0
-505 -283 0
-506 -284 0
-507 -285 0
-400 -286 0
-401 -287 0
-402 -288 0
-496 -286 0
-497 -287 0
-498 -288 0
-364 -289 0
-365 -290 0
-366 -291 0
-421 -289 0
-422 -290 0
-423 -291 0
-481 -292 0
-482 -293 0
-483 -294 0
-406 -295 0
-407 -296 0
-408 -297 0
-451 -295 0
-452 -296 0
-453 -297 0
-301 -298 0
-302 -299 0
-303 -300 0
-313 -298 0
-314 -299 0
-315 -300 0
-508 -298 0
-509 -299 0
-510 -300 0
-367 -301 0
-368 -302 0
-369 -303 0
-316 -304 0
-317 -305 0
-318 -306 0
-328 -307 0
-329 -308 0
-330 -309 0
-487 -307 0
-488 -308 0
-489 -309 0
-319 -310 0
-320 -311 0
-321 -312 0
-373 -310 0
-374 -311 0
-375 -312 0
-502 -310 0
-503 -311 0
-504 -312 0
-388 -316 0
-389 -317 0
-390 -318 0
-478 -316 0
-479 -317 0
-480 -318 0
-520 -319 0
-521 -320 0
-522 -321 0
-370 -325 0
-371 -326 0
-372 -327 0
-394 -325 0
-395 -326 0
-396 -327 0
-475 -325 0
-476 -326 0
-477 -327 0
-508 -325 0
-509 -326 0
-510 -327 0
-331 -328 0
-332 -329 0
-333 -330 0
-364 -331 0
-365 -332 0
-366 -333 0
-481 -331 0
-482 -332 0
-483 -333 0
-478 -334 0
-479 -335 0
-480 -336 0
-502 -334 0
-503 -335 0
-504 -336 0
-349 -337 0
-350 -338 0
-351 -339 0
-382 -337 0
-383 -338 0
-384 -339 0
-487 -337 0
-488 -338 0
-489 -339 0
-400 -343 0
-401 -344 0
-402 -345 0
-472 -343 0
-473 -344 0
-474 -345 0
-355 -349 0
-356 -350 0
-357 -351 0
-448 -349 0
-449 -350 0
-450 -351 0
-490 -349 0
-491 -350 0
-492 -351 0
-523 -352 0
-524 -353 0
-525 -354 0
-358 -355 0
-359 -356 0
-360 -357 0
-463 -355 0
-464 -356 0
-465 -357 0
-388 -358 0
-389 -359 0
-390 -360 0
-433 -358 0
-434 -359 0
-435 -360 0
-442 -361 0
-443 -362 0
-444 -363 0
-496 -361 0
-497 -362 0
-498 -363 0
-376 -364 0
-377 -365 0
-378 -366 0
-376 -367 0
-377 -368 0
-378 -369 0
-376 -370 0
-377 -371 0
-378 -372 0
-421 -376 0
-422 -377 0
-423 -378 0
-445 -376 0
-446 -377 0
-447 -378 0
-475 -379 0
-476 -380 0
-477 -381 0
-457 -382 0
-458 -383 0
-459 -384 0
-448 -388 0
-449 -389 0
-450 -390 0
-523 -391 0
-524 -392 0
-525 -393 0
-478 -394 0
-479 -395 0
-480 -396 0
-454 -397 0
-455 -398 0
-456 -399 0
-445 -400 0
-446 -401 0
-447 -402 0
-523 -400 0
-524 -401 0
-525 -402 0
-442 -403 0
-443 -404 0
-444 -405 0
-517 -403 0
-518 -404 0
-519 -405 0
-454 -409 0
-455 -410 0
-456 -411 0
-436 -412 0
-437 -413 0
-438 -414 0
-454 -412 0
-455 -413 0
-456 -414 0
-451 -415 0
-452 -416 0
-453 -417 0
-469 -415 0
-470 -416 0
-471 -417 0
-514 -418 0
-515 -419 0
-516 -420 0
-454 -421 0
-455 -422 0
-456 -423 0
-466 -424 0
-467 -425 0
-468 -426 0
-439 -427 0
-440 -428 0
-441 -429 0
-496 -427 0
-497 -428 0
-498 -429 0
-502 -427 0
-503 -428 0
-504 -429 0
-517 -427 0
-518 -428 0
-519 -429 0
-502 -433 0
-503 -434 0
-504 -435 0
-496 -451 0
-497 -452 0
-498 -453 0
-517 -457 0
-518 -458 0
-519 -459 0
-484 -463 0
-485 -464 0
-486 -465 0
-499 -475 0
-500 -476 0
-501 -477 0
-484 -478 0
-485 -479 0
-486 -480 0
-514 -484 0
-515 -485 0
-516 -486 0
-505 -490 0
-506 -491 0
-507 -492 0
-514 -499 0
-515 -500 0
-516 -501 0
